NAME : traveling-santa-2018-prime-paths.28727.tour
COMMENT : Length = 28727
COMMENT : Found by LKH [Keld Helsgaun] Sun Jun 12 20:00:27 2022
TYPE : TOUR
DIMENSION : 100
TOUR_SECTION
1
10
86
38
27
43
16
75
32
61
45
92
48
79
89
94
21
78
47
26
82
36
85
4
46
77
72
83
13
8
42
9
57
65
80
19
81
90
64
73
63
20
55
51
5
52
58
49
41
12
56
68
98
7
97
91
40
35
44
34
6
24
30
15
53
87
39
67
14
11
84
29
95
3
96
62
2
37
28
100
60
99
50
66
18
93
70
33
74
59
54
71
88
23
76
17
22
69
25
31
-1
EOF
